Route #1: 31 24 37 6 1
Route #2: 25 12 39 36 42 4 16 3
Route #3: 10 8 41 33 21 5 20 28
Route #4: 26 43 27 11 30 40 34 44
Route #5: 23 9 22 15 2 38 14 35
Route #6: 7 32 13 17 19 18 29
cost 1092.4967041015625